
Gurobi 6.0.4 (win64) logging started 06/20/15 12:06:41

Read LP format model from file C:\MT\repository\VRPTWMS\instances\mip\fuel\N8-C_DV100-C_SV30_F6_9_No_1.lp
Reading time = 0.01 seconds
(null): 417 rows, 208 columns, 1715 nonzeros
Optimize a model with 417 rows, 208 columns and 1715 nonzeros
Model has 576 quadratic constraints
Coefficient statistics:
  Matrix range    [1e+00, 1e+06]
  Objective range [3e+04, 1e+07]
  Bounds range    [1e+00, 1e+06]
  RHS range       [1e+00, 1e+06]
Presolve removed 45 rows and 27 columns
Presolve time: 0.07s
Presolved: 1262 rows, 647 columns, 6147 nonzeros
Variable types: 422 continuous, 225 integer (182 binary)
Found heuristic solution: objective 8.482100e+07

Root relaxation: objective 1.093394e+07, 132 iterations, 0.00 seconds

    Nodes    |    Current Node    |     Objective Bounds      |     Work
 Expl Unexpl |  Obj  Depth IntInf | Incumbent    BestBd   Gap | It/Node Time

     0     0 1.0934e+07    0   31 8.4821e+07 1.0934e+07  87.1%     -    0s
H    0     0                    7.431460e+07 1.0934e+07  85.3%     -    0s
     0     0 1.3776e+07    0   45 7.4315e+07 1.3776e+07  81.5%     -    0s
H    0     0                    6.394780e+07 1.3776e+07  78.5%     -    0s
H    0     0                    4.490880e+07 1.3776e+07  69.3%     -    0s
     0     0 1.7286e+07    0   35 4.4909e+07 1.7286e+07  61.5%     -    0s
     0     0 1.8067e+07    0   41 4.4909e+07 1.8067e+07  59.8%     -    0s
     0     0 1.8178e+07    0   47 4.4909e+07 1.8178e+07  59.5%     -    0s
H    0     0                    3.416200e+07 1.8178e+07  46.8%     -    0s
     0     0 1.8222e+07    0   57 3.4162e+07 1.8222e+07  46.7%     -    0s
     0     0 1.8237e+07    0   50 3.4162e+07 1.8237e+07  46.6%     -    0s
     0     0 1.8237e+07    0   47 3.4162e+07 1.8237e+07  46.6%     -    0s
H    0     0                    3.355390e+07 1.8237e+07  45.6%     -    0s
     0     2 1.8237e+07    0   39 3.3554e+07 1.8237e+07  45.6%     -    0s
*   45    36              23    3.285050e+07 2.0247e+07  38.4%  24.6    0s
*  357   179              26    3.280890e+07 2.2304e+07  32.0%  19.4    0s
*  605   223              18    3.248950e+07 2.2476e+07  30.8%  18.9    0s

Cutting planes:
  Gomory: 4
  Cover: 293
  Implied bound: 203
  Clique: 15
  MIR: 39
  GUB cover: 5
  Zero half: 1

Explored 4641 nodes (88667 simplex iterations) in 2.86 seconds
Thread count was 2 (of 4 available processors)

Optimal solution found (tolerance 1.00e-04)
Best objective 3.248950000000e+07, best bound 3.248950000000e+07, gap 0.0%
k_c1	10000.0
k_c2	1000000.0000000001
k_c3	960000.0
k_c4	1000000.0
k_c5	110000.0
k_c6	1000000.0
k_c7	50000.0
k_c8	50000.0
k_dN	-0.0
o_1	-0.0
o_2	-0.0
o_3	-0.0
o_4	-0.0
o_5	-0.0
o_6	-0.0
o_7	0.0
o_8	-0.0
p_1	0.0
p_2	0.0
p_3	0.0
p_4	-0.0
p_5	0.0
p_6	0.0
p_7	0.0
p_8	0.0
phi_c1	12192.999999999985
phi_c2	41342.0
phi_c3	32293.0
phi_c4	34523.999999999985
phi_c5	31501.0
phi_c6	34257.0
phi_c7	20612.0
phi_c8	18918.999999999996
phi_dN	-0.0
pi_c1	-0.0
pi_c2	-0.0
pi_c3	-0.0
pi_c4	-0.0
pi_c5	-0.0
pi_c6	-0.0
pi_c7	-0.0
pi_c8	-0.0
pi_dN	-0.0
tauD_c1	363449.9999999999
tauD_c2	250000.0
tauD_c3	450000.0
tauD_c4	250000.0
tauD_c5	700000.0
tauD_c6	600000.0
tauD_c7	850000.0
tauD_c8	839300.0
tauD_d0	-0.0
tauD_dN	1000000.0
tauS_c1	894500.0
tauS_c2	850275.0
tauS_c3	850350.0
tauS_c4	824800.0
tauS_c5	821375.0
tauS_c6	823800.0
tauS_c7	842975.0
tauS_c8	849300.0
tauS_d0	-0.0
tauS_dN	1000000.0
x_c1_dN	1.0
x_c2_c3	1.0
x_c3_c7	1.0
x_c4_c1	1.0
x_c5_c8	1.0
x_c6_c5	1.0
x_c7_dN	1.0
x_c8_dN	1.0
x_d0_c2	1.0
x_d0_c4	1.0
x_d0_c6	1.0
